(declare-const x Float32)
(declare-const y Float32)
(declare-const z Float32)
(declare-const r Float32)
(declare-const w Float32)
(assert (= x (fp #b0 #b01111111 #b10000000000001111110011)))
(assert (= y (fp #b0 #b01111111 #b10001000000000101000001)))
(assert (= z (fp #b1 #b10000000 #b00100110000001111110111)))
(assert (= r (fp #b1 #b01100110 #b01111000011000100110100)))
(assert (= w (fp.fma RNE x y z)))
(assert (not (= w r)))
(check-sat)
